\ENCODING=ISO-8859-1
\Problem name: ilog.cplex

Maximize
 obj: 803 x(0)#0 + 728 x(1)#1 + 743 x(2)#2 + 464 x(3)#3 + 853 x(4)#4
      + 587 x(5)#5 + 856 x(6)#6 + 579 x(7)#7 + 359 x(8)#8 + 635 x(9)#9
      + 661 x(10)#10 + 679 x(11)#11 + 583 x(12)#12 + 1026 x(13)#13
      + 637 x(14)#14 + 652 x(15)#15 + 603 x(16)#16 + 583 x(17)#17
      + 1017 x(18)#18 + 817 x(19)#19 + 633 x(20)#20 + 633 x(21)#21
      + 672 x(22)#22 + 540 x(23)#23 + 732 x(24)#24 + 879 x(25)#25
      + 1031 x(26)#26 + 801 x(27)#27 + 892 x(28)#28 + 1030 x(29)#29
      + 844 x(30)#30 + 659 x(31)#31 + 952 x(32)#32 + 917 x(33)#33
      + 1078 x(34)#34 + 1012 x(35)#35 + 709 x(36)#36 + 699 x(37)#37
      + 1091 x(38)#38 + 887 x(39)#39 + 802 x(40)#40 + 1016 x(41)#41
      + 757 x(42)#42 + 810 x(43)#43 + 1023 x(44)#44 + 757 x(45)#45
      + 518 x(46)#46 + 632 x(47)#47 + 1091 x(48)#48 + 595 x(49)#49
      + 630 x(50)#50 + 916 x(51)#51 + 759 x(52)#52 + 674 x(53)#53
      + 553 x(54)#54 + 703 x(55)#55 + 530 x(56)#56 + 790 x(57)#57
      + 628 x(58)#58 + 671 x(59)#59 + 667 x(60)#60 + 885 x(61)#61
      + 527 x(62)#62 + 970 x(63)#63 + 683 x(64)#64 + 716 x(65)#65
      + 714 x(66)#66 + 919 x(67)#67 + 504 x(68)#68 + 703 x(69)#69
      + 924 x(70)#70 + 533 x(71)#71 + 510 x(72)#72 + 993 x(73)#73
      + 840 x(74)#74 + 538 x(75)#75 + 909 x(76)#76 + 884 x(77)#77
      + 639 x(78)#78 + 811 x(79)#79 + 1000 x(80)#80 + 267 x(81)#81
      + 632 x(82)#82 + 937 x(83)#83 + 875 x(84)#84 + 768 x(85)#85
      + 928 x(86)#86 + 378 x(87)#87 + 948 x(88)#88 + 628 x(89)#89
      + 530 x(90)#90 + 676 x(91)#91 + 662 x(92)#92 + 490 x(93)#93
      + 1006 x(94)#94 + 949 x(95)#95 + 822 x(96)#96 + 694 x(97)#97
      + 1013 x(98)#98 + 600 x(99)#99
Subject To
 c1:  300 x(0)#0 + 78 x(1)#1 + 275 x(2)#2 + 724 x(3)#3 + 674 x(4)#4
      + 227 x(5)#5 + 84 x(6)#6 + 587 x(7)#7 + 768 x(8)#8 + 51 x(9)#9
      + 446 x(10)#10 + 955 x(11)#11 + 886 x(12)#12 + 871 x(13)#13
      + 557 x(14)#14 + 978 x(15)#15 + 336 x(16)#16 + 442 x(17)#17 + 71 x(18)#18
      + 222 x(19)#19 + 505 x(20)#20 + 327 x(21)#21 + 706 x(22)#22 + 86 x(23)#23
      + 596 x(24)#24 + 257 x(25)#25 + 726 x(26)#26 + 420 x(27)#27
      + 835 x(28)#28 + 792 x(29)#29 + 739 x(30)#30 + 373 x(31)#31
      + 796 x(32)#32 + 769 x(33)#33 + 745 x(34)#34 + 540 x(35)#35
      + 966 x(36)#36 + 450 x(37)#37 + 721 x(38)#38 + 242 x(39)#39
      + 559 x(40)#40 + 352 x(41)#41 + 990 x(42)#42 + 951 x(43)#43
      + 875 x(44)#44 + 329 x(45)#45 + 803 x(46)#46 + 892 x(47)#47 + 52 x(48)#48
      + 681 x(49)#49 + 388 x(50)#50 + 824 x(51)#51 + 892 x(52)#52
      + 381 x(53)#53 + 52 x(54)#54 + 774 x(55)#55 + 372 x(56)#56 + 368 x(57)#57
      + 969 x(58)#58 + 929 x(59)#59 + 378 x(60)#60 + 449 x(61)#61
      + 249 x(62)#62 + 255 x(63)#63 + 123 x(64)#64 + 745 x(65)#65
      + 978 x(66)#66 + 862 x(67)#67 + 302 x(68)#68 + 549 x(69)#69
      + 229 x(70)#70 + 418 x(71)#71 + 389 x(72)#72 + 768 x(73)#73
      + 961 x(74)#74 + 186 x(75)#75 + 657 x(76)#76 + 717 x(77)#77
      + 254 x(78)#78 + 533 x(79)#79 + 733 x(80)#80 + 144 x(81)#81
      + 208 x(82)#82 + 928 x(83)#83 + 919 x(84)#84 + 402 x(85)#85
      + 536 x(86)#86 + 900 x(87)#87 + 893 x(88)#88 + 814 x(89)#89
      + 121 x(90)#90 + 601 x(91)#91 + 262 x(92)#92 + 207 x(93)#93
      + 735 x(94)#94 + 125 x(95)#95 + 755 x(96)#96 + 581 x(97)#97
      + 464 x(98)#98 + 674 x(99)#99 <= 13640
 c2:  297 x(0)#0 + 539 x(1)#1 + 903 x(2)#2 + 75 x(3)#3 + 384 x(4)#4
      + 474 x(5)#5 + 909 x(6)#6 + 5 x(7)#7 + 97 x(8)#8 + 323 x(9)#9
      + 326 x(10)#10 + 125 x(11)#11 + 578 x(12)#12 + 415 x(13)#13
      + 420 x(14)#14 + 581 x(15)#15 + 272 x(16)#16 + 455 x(17)#17
      + 895 x(18)#18 + 294 x(19)#19 + 633 x(20)#20 + 858 x(21)#21
      + 215 x(22)#22 + 157 x(23)#23 + 807 x(24)#24 + 322 x(25)#25
      + 670 x(26)#26 + 997 x(27)#27 + 315 x(28)#28 + 101 x(29)#29
      + 489 x(30)#30 + 784 x(31)#31 + 479 x(32)#32 + 836 x(33)#33
      + 224 x(34)#34 + 917 x(35)#35 + 898 x(36)#36 + 894 x(37)#37
      + 347 x(38)#38 + 576 x(39)#39 + 434 x(40)#40 + 834 x(41)#41
      + 243 x(42)#42 + 940 x(43)#43 + 403 x(44)#44 + 326 x(45)#45
      + 408 x(46)#46 + 353 x(47)#47 + 945 x(48)#48 + 307 x(49)#49 + 48 x(50)#50
      + 302 x(51)#51 + 287 x(52)#52 + 621 x(53)#53 + 546 x(54)#54
      + 749 x(55)#55 + 869 x(56)#56 + 147 x(57)#57 + 870 x(58)#58
      + 329 x(59)#59 + 115 x(60)#60 + 450 x(61)#61 + 534 x(62)#62
      + 592 x(63)#63 + 609 x(64)#64 + 25 x(65)#65 + 16 x(66)#66 + 392 x(67)#67
      + 202 x(68)#68 + 5 x(69)#69 + 818 x(70)#70 + 195 x(71)#71 + 444 x(72)#72
      + 571 x(73)#73 + 948 x(74)#74 + 154 x(75)#75 + 552 x(76)#76
      + 567 x(77)#77 + 820 x(78)#78 + 243 x(79)#79 + 537 x(80)#80
      + 358 x(81)#81 + 260 x(82)#82 + 706 x(83)#83 + 471 x(84)#84
      + 237 x(85)#85 + 676 x(86)#86 + 281 x(87)#87 + 145 x(88)#88
      + 273 x(89)#89 + 567 x(90)#90 + 87 x(91)#91 + 692 x(92)#92 + 787 x(93)#93
      + 878 x(94)#94 + 857 x(95)#95 + 821 x(96)#96 + 89 x(97)#97 + 983 x(98)#98
      + 388 x(99)#99 <= 12048
 c3:  24 x(0)#0 + 638 x(1)#1 + 899 x(2)#2 + 982 x(3)#3 + 207 x(4)#4
      + 788 x(5)#5 + 194 x(6)#6 + 455 x(7)#7 + 217 x(8)#8 + 71 x(9)#9
      + 799 x(10)#10 + 539 x(11)#11 + 720 x(12)#12 + 713 x(13)#13
      + 443 x(14)#14 + 268 x(15)#15 + 257 x(16)#16 + 861 x(17)#17
      + 891 x(18)#18 + 857 x(19)#19 + 633 x(20)#20 + 620 x(21)#21
      + 336 x(22)#22 + 912 x(23)#23 + 500 x(24)#24 + 361 x(25)#25 + 66 x(26)#26
      + 469 x(27)#27 + 789 x(28)#28 + 717 x(29)#29 + 244 x(30)#30 + 73 x(31)#31
      + 780 x(32)#32 + 801 x(33)#33 + 894 x(34)#34 + 185 x(35)#35
      + 947 x(36)#36 + 680 x(37)#37 + 917 x(38)#38 + 275 x(39)#39
      + 887 x(40)#40 + 792 x(41)#41 + 986 x(42)#42 + 424 x(43)#43
      + 167 x(44)#44 + 108 x(45)#45 + 389 x(46)#46 + 258 x(47)#47
      + 941 x(48)#48 + 963 x(49)#49 + 47 x(50)#50 + 869 x(51)#51 + 711 x(52)#52
      + 117 x(53)#53 + 170 x(54)#54 + 725 x(55)#55 + 221 x(56)#56
      + 131 x(57)#57 + 370 x(58)#58 + 371 x(59)#59 + 792 x(60)#60
      + 460 x(61)#61 + 264 x(62)#62 + 518 x(63)#63 + 111 x(64)#64
      + 127 x(65)#65 + 370 x(66)#66 + 875 x(67)#67 + 121 x(68)#68 + 69 x(69)#69
      + 396 x(70)#70 + 485 x(71)#71 + 433 x(72)#72 + 305 x(73)#73
      + 589 x(74)#74 + 908 x(75)#75 + 460 x(76)#76 + 214 x(77)#77 + x(78)#78
      + 389 x(79)#79 + 972 x(80)#80 + 31 x(81)#81 + 426 x(82)#82 + 836 x(83)#83
      + 986 x(84)#84 + 20 x(85)#85 + 941 x(86)#86 + 652 x(87)#87 + 222 x(88)#88
      + 914 x(89)#89 + 93 x(90)#90 + 634 x(91)#91 + 646 x(92)#92 + 343 x(93)#93
      + 923 x(94)#94 + 613 x(95)#95 + 808 x(96)#96 + 264 x(97)#97
      + 160 x(98)#98 + 254 x(99)#99 <= 12574
 c4:  791 x(0)#0 + 715 x(1)#1 + 560 x(2)#2 + 703 x(3)#3 + 415 x(4)#4
      + 363 x(5)#5 + 239 x(6)#6 + 357 x(7)#7 + 953 x(8)#8 + 567 x(9)#9
      + 368 x(10)#10 + 349 x(11)#11 + 21 x(12)#12 + 874 x(13)#13 + 874 x(14)#14
      + 872 x(15)#15 + 443 x(16)#16 + 56 x(17)#17 + 632 x(18)#18 + 798 x(19)#19
      + 255 x(20)#20 + 773 x(21)#21 + 36 x(22)#22 + 692 x(23)#23 + 239 x(24)#24
      + 485 x(25)#25 + 980 x(26)#26 + 381 x(27)#27 + 886 x(28)#28
      + 875 x(29)#29 + 592 x(30)#30 + 345 x(31)#31 + 863 x(32)#32
      + 778 x(33)#33 + 985 x(34)#34 + 520 x(35)#35 + 385 x(36)#36
      + 110 x(37)#37 + 905 x(38)#38 + 501 x(39)#39 + 69 x(40)#40 + 944 x(41)#41
      + 922 x(42)#42 + 106 x(43)#43 + 680 x(44)#44 + 315 x(45)#45
      + 735 x(46)#46 + 912 x(47)#47 + 904 x(48)#48 + 585 x(49)#49
      + 877 x(50)#50 + 475 x(51)#51 + 136 x(52)#52 + 92 x(53)#53 + 495 x(54)#54
      + 799 x(55)#55 + 300 x(56)#56 + 479 x(57)#57 + 540 x(58)#58
      + 125 x(59)#59 + 820 x(60)#60 + 712 x(61)#61 + 258 x(62)#62
      + 299 x(63)#63 + 776 x(64)#64 + 587 x(65)#65 + 358 x(66)#66
      + 503 x(67)#67 + 815 x(68)#68 + 168 x(69)#69 + 979 x(70)#70
      + 658 x(71)#71 + 840 x(72)#72 + 984 x(73)#73 + 974 x(74)#74
      + 532 x(75)#75 + 765 x(76)#76 + 962 x(77)#77 + 851 x(78)#78
      + 323 x(79)#79 + 963 x(80)#80 + 904 x(81)#81 + 185 x(82)#82
      + 507 x(83)#83 + 762 x(84)#84 + 40 x(85)#85 + 798 x(86)#86 + 108 x(87)#87
      + 628 x(88)#88 + 547 x(89)#89 + 123 x(90)#90 + 127 x(91)#91
      + 231 x(92)#92 + 8 x(93)#93 + 781 x(94)#94 + 862 x(95)#95 + 810 x(96)#96
      + 638 x(97)#97 + 248 x(98)#98 + 198 x(99)#99 <= 13915
 c5:  98 x(0)#0 + 947 x(1)#1 + 956 x(2)#2 + 509 x(3)#3 + 298 x(4)#4
      + 728 x(5)#5 + 253 x(6)#6 + 779 x(7)#7 + 244 x(8)#8 + 208 x(9)#9
      + 324 x(10)#10 + 227 x(11)#11 + 50 x(12)#12 + 708 x(13)#13 + 719 x(14)#14
      + 158 x(15)#15 + 787 x(16)#16 + 33 x(17)#17 + 536 x(18)#18 + 60 x(19)#19
      + 327 x(20)#20 + 852 x(21)#21 + 128 x(22)#22 + 105 x(23)#23
      + 968 x(24)#24 + 314 x(25)#25 + 978 x(26)#26 + 368 x(27)#27
      + 318 x(28)#28 + 826 x(29)#29 + 407 x(30)#30 + 123 x(31)#31
      + 617 x(32)#32 + 943 x(33)#33 + 757 x(34)#34 + 326 x(35)#35
      + 620 x(36)#36 + 687 x(37)#37 + 63 x(38)#38 + 439 x(39)#39 + 614 x(40)#40
      + 533 x(41)#41 + 522 x(42)#42 + 174 x(43)#43 + 439 x(44)#44
      + 862 x(45)#45 + 981 x(46)#46 + 972 x(47)#47 + 789 x(48)#48
      + 573 x(49)#49 + 262 x(50)#50 + 989 x(51)#51 + 573 x(52)#52
      + 184 x(53)#53 + 604 x(54)#54 + 828 x(55)#55 + 336 x(56)#56
      + 503 x(57)#57 + 1000 x(58)#58 + 515 x(59)#59 + 954 x(60)#60
      + 751 x(61)#61 + 627 x(62)#62 + 776 x(63)#63 + 676 x(64)#64
      + 899 x(65)#65 + 870 x(66)#66 + 974 x(67)#67 + 516 x(68)#68 + 5 x(69)#69
      + 891 x(70)#70 + 848 x(71)#71 + 218 x(72)#72 + 664 x(73)#73 + 79 x(74)#74
      + 542 x(75)#75 + 938 x(76)#76 + 397 x(77)#77 + 660 x(78)#78
      + 397 x(79)#79 + 567 x(80)#80 + 183 x(81)#81 + 96 x(82)#82 + 592 x(83)#83
      + 846 x(84)#84 + 271 x(85)#85 + 943 x(86)#86 + 201 x(87)#87
      + 558 x(88)#88 + 926 x(89)#89 + 961 x(90)#90 + 357 x(91)#91
      + 216 x(92)#92 + 110 x(93)#93 + 419 x(94)#94 + 627 x(95)#95
      + 267 x(96)#96 + 111 x(97)#97 + 742 x(98)#98 + 211 x(99)#99 <= 13232
 c6:  4 x(0)#0 + 459 x(1)#1 + 106 x(2)#2 + 86 x(3)#3 + 392 x(4)#4 + 345 x(5)#5
      + 585 x(6)#6 + 761 x(7)#7 + 193 x(8)#8 + 746 x(9)#9 + 19 x(10)#10
      + 393 x(11)#11 + 73 x(12)#12 + 932 x(13)#13 + 117 x(14)#14 + 389 x(15)#15
      + 2 x(16)#16 + 10 x(17)#17 + 184 x(18)#18 + 406 x(19)#19 + 314 x(20)#20
      + 256 x(21)#21 + 3 x(22)#22 + 544 x(23)#23 + 903 x(24)#24 + 839 x(25)#25
      + 640 x(26)#26 + 893 x(27)#27 + 606 x(28)#28 + 660 x(29)#29
      + 622 x(30)#30 + 86 x(31)#31 + 475 x(32)#32 + 297 x(33)#33 + 420 x(34)#34
      + 672 x(35)#35 + 928 x(36)#36 + 409 x(37)#37 + 969 x(38)#38
      + 696 x(39)#39 + 694 x(40)#40 + 276 x(41)#41 + 507 x(42)#42
      + 431 x(43)#43 + 252 x(44)#44 + 910 x(45)#45 + 206 x(46)#46
      + 260 x(47)#47 + 666 x(48)#48 + 464 x(49)#49 + 784 x(50)#50
      + 372 x(51)#51 + 740 x(52)#52 + 948 x(53)#53 + 998 x(54)#54
      + 314 x(55)#55 + 887 x(56)#56 + 968 x(57)#57 + 257 x(58)#58
      + 230 x(59)#59 + 62 x(60)#60 + 410 x(61)#61 + 718 x(62)#62 + 543 x(63)#63
      + 553 x(64)#64 + 397 x(65)#65 + 728 x(66)#66 + 640 x(67)#67
      + 306 x(68)#68 + 471 x(69)#69 + 118 x(70)#70 + 499 x(71)#71
      + 463 x(72)#72 + 987 x(73)#73 + 916 x(74)#74 + 425 x(75)#75
      + 198 x(76)#76 + 525 x(77)#77 + 435 x(78)#78 + 677 x(79)#79
      + 301 x(80)#80 + 329 x(81)#81 + 775 x(82)#82 + 699 x(83)#83
      + 892 x(84)#84 + 242 x(85)#85 + 620 x(86)#86 + 36 x(87)#87 + 881 x(88)#88
      + 3 x(89)#89 + 192 x(90)#90 + 806 x(91)#91 + 761 x(92)#92 + 543 x(93)#93
      + 806 x(94)#94 + 118 x(95)#95 + 543 x(96)#96 + 810 x(97)#97
      + 272 x(98)#98 + 461 x(99)#99 <= 12190
 c7:  926 x(0)#0 + 396 x(1)#1 + 649 x(2)#2 + 219 x(3)#3 + 598 x(4)#4
      + 352 x(5)#5 + 454 x(6)#6 + 493 x(7)#7 + x(8)#8 + 968 x(9)#9
      + 979 x(10)#10 + 240 x(11)#11 + 675 x(12)#12 + 6 x(13)#13 + 373 x(14)#14
      + 499 x(15)#15 + 51 x(16)#16 + 699 x(17)#17 + 731 x(18)#18 + 134 x(19)#19
      + 899 x(20)#20 + 312 x(21)#21 + 402 x(22)#22 + 997 x(23)#23
      + 449 x(24)#24 + 494 x(25)#25 + 621 x(26)#26 + 938 x(27)#27
      + 211 x(28)#28 + 749 x(29)#29 + 169 x(30)#30 + 118 x(31)#31
      + 413 x(32)#32 + 367 x(33)#33 + 514 x(34)#34 + 726 x(35)#35
      + 802 x(36)#36 + 170 x(37)#37 + 440 x(38)#38 + 501 x(39)#39
      + 132 x(40)#40 + 679 x(41)#41 + 671 x(42)#42 + 373 x(43)#43
      + 164 x(44)#44 + 295 x(45)#45 + 137 x(46)#46 + 860 x(47)#47
      + 184 x(48)#48 + 358 x(49)#49 + 299 x(50)#50 + 696 x(51)#51
      + 263 x(52)#52 + 966 x(53)#53 + 570 x(54)#54 + 155 x(55)#55
      + 629 x(56)#56 + 12 x(57)#57 + 164 x(58)#58 + 261 x(59)#59 + 471 x(60)#60
      + 833 x(61)#61 + 958 x(62)#62 + 805 x(63)#63 + 78 x(64)#64 + 352 x(65)#65
      + 857 x(66)#66 + 253 x(67)#67 + 548 x(68)#68 + 250 x(69)#69 + 75 x(70)#70
      + 55 x(71)#71 + 823 x(72)#72 + 187 x(73)#73 + 679 x(74)#74 + 627 x(75)#75
      + 680 x(76)#76 + 626 x(77)#77 + 44 x(78)#78 + 78 x(79)#79 + 179 x(80)#80
      + 116 x(81)#81 + 950 x(82)#82 + 866 x(83)#83 + 900 x(84)#84
      + 669 x(85)#85 + 182 x(86)#86 + 376 x(87)#87 + 725 x(88)#88
      + 635 x(89)#89 + 466 x(90)#90 + 398 x(91)#91 + 770 x(92)#92
      + 611 x(93)#93 + 285 x(94)#94 + 688 x(95)#95 + 921 x(96)#96
      + 640 x(97)#97 + 853 x(98)#98 + 856 x(99)#99 <= 12242
 c8:  682 x(0)#0 + 495 x(1)#1 + 207 x(2)#2 + 741 x(3)#3 + 459 x(4)#4
      + 268 x(5)#5 + 898 x(6)#6 + 380 x(7)#7 + 440 x(8)#8 + 138 x(9)#9
      + 413 x(10)#10 + 193 x(11)#11 + 148 x(12)#12 + 348 x(13)#13
      + 642 x(14)#14 + 148 x(15)#15 + 274 x(16)#16 + 830 x(17)#17
      + 679 x(18)#18 + 964 x(19)#19 + 82 x(20)#20 + 147 x(21)#21 + 289 x(22)#22
      + 557 x(23)#23 + 396 x(24)#24 + 805 x(25)#25 + 679 x(26)#26
      + 912 x(27)#27 + 630 x(28)#28 + 230 x(29)#29 + 943 x(30)#30
      + 254 x(31)#31 + 54 x(32)#32 + 746 x(33)#33 + 563 x(34)#34 + 349 x(35)#35
      + 878 x(36)#36 + 552 x(37)#37 + 721 x(38)#38 + 367 x(39)#39
      + 803 x(40)#40 + 132 x(41)#41 + 982 x(42)#42 + 221 x(43)#43
      + 891 x(44)#44 + 751 x(45)#45 + 296 x(46)#46 + 406 x(47)#47
      + 689 x(48)#48 + 721 x(49)#49 + 77 x(50)#50 + 199 x(51)#51 + 803 x(52)#52
      + 187 x(53)#53 + 191 x(54)#54 + 769 x(55)#55 + 174 x(56)#56
      + 999 x(57)#57 + 84 x(58)#58 + 598 x(59)#59 + 886 x(60)#60 + 747 x(61)#61
      + 63 x(62)#62 + 225 x(63)#63 + 655 x(64)#64 + 10 x(65)#65 + 984 x(66)#66
      + 880 x(67)#67 + 378 x(68)#68 + 386 x(69)#69 + 804 x(70)#70
      + 451 x(71)#71 + 360 x(72)#72 + 779 x(73)#73 + 364 x(74)#74
      + 154 x(75)#75 + 897 x(76)#76 + 572 x(77)#77 + 863 x(78)#78
      + 864 x(79)#79 + 522 x(80)#80 + 317 x(81)#81 + 575 x(82)#82
      + 337 x(83)#83 + 375 x(84)#84 + 411 x(85)#85 + 692 x(86)#86
      + 196 x(87)#87 + 302 x(88)#88 + 16 x(89)#89 + 251 x(90)#90 + 608 x(91)#91
      + 751 x(92)#92 + 295 x(93)#93 + 180 x(94)#94 + 904 x(95)#95 + 13 x(96)#96
      + 695 x(97)#97 + 726 x(98)#98 + 615 x(99)#99 <= 12394
 c9:  942 x(0)#0 + 431 x(1)#1 + 834 x(2)#2 + 554 x(3)#3 + 850 x(4)#4
      + 484 x(5)#5 + 58 x(6)#6 + 191 x(7)#7 + 108 x(8)#8 + 75 x(9)#9
      + 792 x(10)#10 + 801 x(11)#11 + 451 x(12)#12 + 994 x(13)#13
      + 950 x(14)#14 + 145 x(15)#15 + 512 x(16)#16 + 956 x(17)#17
      + 345 x(18)#18 + 52 x(19)#19 + 750 x(20)#20 + 776 x(21)#21 + 653 x(22)#22
      + 15 x(23)#23 + 515 x(24)#24 + 296 x(25)#25 + 223 x(26)#26 + 19 x(27)#27
      + 192 x(28)#28 + 914 x(29)#29 + 388 x(30)#30 + 272 x(31)#31
      + 474 x(32)#32 + 673 x(33)#33 + 229 x(34)#34 + 490 x(35)#35 + 6 x(36)#36
      + 753 x(37)#37 + 670 x(38)#38 + 278 x(39)#39 + 158 x(40)#40
      + 541 x(41)#41 + 795 x(42)#42 + 163 x(43)#43 + 998 x(44)#44
      + 528 x(45)#45 + 394 x(46)#46 + 65 x(47)#47 + 614 x(48)#48 + 349 x(49)#49
      + 198 x(50)#50 + 451 x(51)#51 + 325 x(52)#52 + 136 x(53)#53
      + 570 x(54)#54 + 635 x(55)#55 + 921 x(56)#56 + 192 x(57)#57
      + 919 x(58)#58 + 657 x(59)#59 + 169 x(60)#60 + 643 x(61)#61
      + 755 x(62)#62 + 548 x(63)#63 + 638 x(64)#64 + 576 x(65)#65
      + 666 x(66)#66 + 133 x(67)#67 + 709 x(68)#68 + 794 x(69)#69
      + 457 x(70)#70 + 334 x(71)#71 + 134 x(72)#72 + 105 x(73)#73
      + 847 x(74)#74 + 949 x(75)#75 + 986 x(76)#76 + 400 x(77)#77
      + 747 x(78)#78 + 47 x(79)#79 + 767 x(80)#80 + 63 x(81)#81 + 331 x(82)#82
      + 327 x(83)#83 + 675 x(84)#84 + 655 x(85)#85 + 233 x(86)#86
      + 724 x(87)#87 + 633 x(88)#88 + 743 x(89)#89 + 494 x(90)#90 + 36 x(91)#91
      + 382 x(92)#92 + 25 x(93)#93 + 187 x(94)#94 + 883 x(95)#95 + 483 x(96)#96
      + 923 x(97)#97 + 860 x(98)#98 + 249 x(99)#99 <= 12258
 c10: 608 x(0)#0 + 446 x(1)#1 + 555 x(2)#2 + 22 x(3)#3 + 45 x(4)#4 + 384 x(5)#5
      + 422 x(6)#6 + 518 x(7)#7 + 80 x(8)#8 + 954 x(9)#9 + 960 x(10)#10
      + 253 x(11)#11 + 285 x(12)#12 + 425 x(13)#13 + 552 x(14)#14
      + 513 x(15)#15 + 984 x(16)#16 + 757 x(17)#17 + 219 x(18)#18 + 50 x(19)#19
      + 772 x(20)#20 + 956 x(21)#21 + 434 x(22)#22 + 427 x(23)#23
      + 417 x(24)#24 + 676 x(25)#25 + 227 x(26)#26 + 693 x(27)#27
      + 279 x(28)#28 + 50 x(29)#29 + 249 x(30)#30 + 199 x(31)#31 + 422 x(32)#32
      + 485 x(33)#33 + 747 x(34)#34 + 680 x(35)#35 + 353 x(36)#36
      + 545 x(37)#37 + 254 x(38)#38 + 128 x(39)#39 + 710 x(40)#40
      + 469 x(41)#41 + 97 x(42)#42 + 585 x(43)#43 + 398 x(44)#44 + 780 x(45)#45
      + 700 x(46)#46 + 361 x(47)#47 + 509 x(48)#48 + 36 x(49)#49 + 216 x(50)#50
      + 357 x(51)#51 + 912 x(52)#52 + 927 x(53)#53 + 188 x(54)#54
      + 229 x(55)#55 + 161 x(56)#56 + 309 x(57)#57 + 765 x(58)#58
      + 834 x(59)#59 + 220 x(60)#60 + 310 x(61)#61 + 538 x(62)#62
      + 399 x(63)#63 + 247 x(64)#64 + 624 x(65)#65 + 699 x(66)#66
      + 154 x(67)#67 + 748 x(68)#68 + 77 x(69)#69 + 575 x(70)#70 + 553 x(71)#71
      + 454 x(72)#72 + 161 x(73)#73 + 640 x(74)#74 + 693 x(75)#75 + 28 x(76)#76
      + 487 x(77)#77 + 111 x(78)#78 + 424 x(79)#79 + 112 x(80)#80 + 17 x(81)#81
      + 95 x(82)#82 + 597 x(83)#83 + 87 x(84)#84 + x(85)#85 + 307 x(86)#86
      + 203 x(87)#87 + 806 x(88)#88 + 571 x(89)#89 + 334 x(90)#90
      + 441 x(91)#91 + 489 x(92)#92 + 374 x(93)#93 + 695 x(94)#94
      + 929 x(95)#95 + 411 x(96)#96 + 438 x(97)#97 + 416 x(98)#98
      + 805 x(99)#99 <= 10960
Bounds
 0 <= x(0)#0 <= 1
 0 <= x(1)#1 <= 1
 0 <= x(2)#2 <= 1
 0 <= x(3)#3 <= 1
 0 <= x(4)#4 <= 1
 0 <= x(5)#5 <= 1
 0 <= x(6)#6 <= 1
 0 <= x(7)#7 <= 1
 0 <= x(8)#8 <= 1
 0 <= x(9)#9 <= 1
 0 <= x(10)#10 <= 1
 0 <= x(11)#11 <= 1
 0 <= x(12)#12 <= 1
 0 <= x(13)#13 <= 1
 0 <= x(14)#14 <= 1
 0 <= x(15)#15 <= 1
 0 <= x(16)#16 <= 1
 0 <= x(17)#17 <= 1
 0 <= x(18)#18 <= 1
 0 <= x(19)#19 <= 1
 0 <= x(20)#20 <= 1
 0 <= x(21)#21 <= 1
 0 <= x(22)#22 <= 1
 0 <= x(23)#23 <= 1
 0 <= x(24)#24 <= 1
 0 <= x(25)#25 <= 1
 0 <= x(26)#26 <= 1
 0 <= x(27)#27 <= 1
 0 <= x(28)#28 <= 1
 0 <= x(29)#29 <= 1
 0 <= x(30)#30 <= 1
 0 <= x(31)#31 <= 1
 0 <= x(32)#32 <= 1
 0 <= x(33)#33 <= 1
 0 <= x(34)#34 <= 1
 0 <= x(35)#35 <= 1
 0 <= x(36)#36 <= 1
 0 <= x(37)#37 <= 1
 0 <= x(38)#38 <= 1
 0 <= x(39)#39 <= 1
 0 <= x(40)#40 <= 1
 0 <= x(41)#41 <= 1
 0 <= x(42)#42 <= 1
 0 <= x(43)#43 <= 1
 0 <= x(44)#44 <= 1
 0 <= x(45)#45 <= 1
 0 <= x(46)#46 <= 1
 0 <= x(47)#47 <= 1
 0 <= x(48)#48 <= 1
 0 <= x(49)#49 <= 1
 0 <= x(50)#50 <= 1
 0 <= x(51)#51 <= 1
 0 <= x(52)#52 <= 1
 0 <= x(53)#53 <= 1
 0 <= x(54)#54 <= 1
 0 <= x(55)#55 <= 1
 0 <= x(56)#56 <= 1
 0 <= x(57)#57 <= 1
 0 <= x(58)#58 <= 1
 0 <= x(59)#59 <= 1
 0 <= x(60)#60 <= 1
 0 <= x(61)#61 <= 1
 0 <= x(62)#62 <= 1
 0 <= x(63)#63 <= 1
 0 <= x(64)#64 <= 1
 0 <= x(65)#65 <= 1
 0 <= x(66)#66 <= 1
 0 <= x(67)#67 <= 1
 0 <= x(68)#68 <= 1
 0 <= x(69)#69 <= 1
 0 <= x(70)#70 <= 1
 0 <= x(71)#71 <= 1
 0 <= x(72)#72 <= 1
 0 <= x(73)#73 <= 1
 0 <= x(74)#74 <= 1
 0 <= x(75)#75 <= 1
 0 <= x(76)#76 <= 1
 0 <= x(77)#77 <= 1
 0 <= x(78)#78 <= 1
 0 <= x(79)#79 <= 1
 0 <= x(80)#80 <= 1
 0 <= x(81)#81 <= 1
 0 <= x(82)#82 <= 1
 0 <= x(83)#83 <= 1
 0 <= x(84)#84 <= 1
 0 <= x(85)#85 <= 1
 0 <= x(86)#86 <= 1
 0 <= x(87)#87 <= 1
 0 <= x(88)#88 <= 1
 0 <= x(89)#89 <= 1
 0 <= x(90)#90 <= 1
 0 <= x(91)#91 <= 1
 0 <= x(92)#92 <= 1
 0 <= x(93)#93 <= 1
 0 <= x(94)#94 <= 1
 0 <= x(95)#95 <= 1
 0 <= x(96)#96 <= 1
 0 <= x(97)#97 <= 1
 0 <= x(98)#98 <= 1
 0 <= x(99)#99 <= 1
Generals
 x(0)#0  x(1)#1  x(2)#2  x(3)#3  x(4)#4  x(5)#5  x(6)#6  x(7)#7  x(8)#8 
 x(9)#9  x(10)#10  x(11)#11  x(12)#12  x(13)#13  x(14)#14  x(15)#15  x(16)#16 
 x(17)#17  x(18)#18  x(19)#19  x(20)#20  x(21)#21  x(22)#22  x(23)#23 
 x(24)#24  x(25)#25  x(26)#26  x(27)#27  x(28)#28  x(29)#29  x(30)#30 
 x(31)#31  x(32)#32  x(33)#33  x(34)#34  x(35)#35  x(36)#36  x(37)#37 
 x(38)#38  x(39)#39  x(40)#40  x(41)#41  x(42)#42  x(43)#43  x(44)#44 
 x(45)#45  x(46)#46  x(47)#47  x(48)#48  x(49)#49  x(50)#50  x(51)#51 
 x(52)#52  x(53)#53  x(54)#54  x(55)#55  x(56)#56  x(57)#57  x(58)#58 
 x(59)#59  x(60)#60  x(61)#61  x(62)#62  x(63)#63  x(64)#64  x(65)#65 
 x(66)#66  x(67)#67  x(68)#68  x(69)#69  x(70)#70  x(71)#71  x(72)#72 
 x(73)#73  x(74)#74  x(75)#75  x(76)#76  x(77)#77  x(78)#78  x(79)#79 
 x(80)#80  x(81)#81  x(82)#82  x(83)#83  x(84)#84  x(85)#85  x(86)#86 
 x(87)#87  x(88)#88  x(89)#89  x(90)#90  x(91)#91  x(92)#92  x(93)#93 
 x(94)#94  x(95)#95  x(96)#96  x(97)#97  x(98)#98  x(99)#99 
End
